tsp_instances/TSP20/instance93.tsp
NODE_COORD_SECTION
0 83 25
1 88 185
2 157 193
3 128 5
4 29 8
5 43 160
6 138 196
7 142 164
8 2 155
9 46 79
10 99 87
11 171 198
12 88 80
13 186 19
14 8 76
15 64 31
16 77 74
17 194 77
18 21 98
19 14 134
