tsp_instances/TSP20/instance93.opt.tour
TOUR_SECTION
1
4
14
18
8
12
3
7
2
6
9
20
19
15
10
17
13
11
16
5
-1